c uprop, v00.0, 
c reading from data/prog762.c.cnf
c done reading: 0.00295
p cnf 53 150
-33 -36 0
33 36 0
-28 -29 0
28 29 0
-26 -35 0
26 35 0
-23 -25 0
23 25 0
22 -36 0
-22 36 0
-20 -22 36 0
-20 -22 0
20 22 -36 0
20 22 0
18 -22 -29 0
-18 29 0
-18 22 29 0
-18 22 0
-16 -18 29 0
-16 -18 0
-16 -18 22 0
16 18 -29 0
16 18 -22 0
-16 22 29 0
-26 31 0
-18 -26 31 0
-18 31 0
18 26 -31 0
26 -31 -38 0
18 -31 -38 0
-26 31 38 0
31 38 0
-18 31 38 0
-18 -26 38 0
-23 -36 39 0
-23 -31 39 0
-31 -36 39 0
23 36 -39 0
23 31 -39 0
31 36 -39 0
-23 39 0
-36 39 0
-31 39 0
-23 -31 -36 0
29 -40 0
39 -40 0
-29 -39 40 0
-29 39 0
29 -39 0
26 -42 0
40 -42 0
-26 -40 42 0
-26 40 0
26 -40 0
-23 -42 0
-23 42 0
23 -42 0
-20 -45 0
20 45 0
-16 -46 0
16 46 0
-38 -47 0
38 47 0
-48 -49 0
-49 -50 0
48 49 50 0
-41 48 50 0
-41 -48 -50 0
41 -48 50 0
41 48 -50 0
49 -51 0
-44 -51 0
44 -49 51 0
-43 44 -49 0
-43 -44 49 0
43 44 49 0
43 -44 -49 0
51 -52 0
-51 52 0
-51 -53 0
51 53 0
-14 52 0
14 -52 0
-13 -52 0
13 52 0
-12 14 0
12 -14 0
-11 -14 0
11 14 0
-10 12 0
10 -12 0
-9 -12 0
9 12 0
-8 10 0
8 -10 0
-7 -10 0
7 10 0
-32 -48 0
-32 -50 0
32 48 50 0
-6 48 50 0
-6 -48 -50 0
6 -48 50 0
6 48 -50 0
-27 32 0
-27 -44 0
27 -32 44 0
-5 -32 44 0
-5 32 -44 0
5 32 44 0
5 -32 -44 0
27 -34 0
-27 34 0
-4 -27 0
4 27 0
-24 34 0
24 -34 0
-3 -34 0
3 34 0
-2 24 0
2 -24 0
-21 -24 0
21 24 0
2 -19 0
-2 19 0
-2 -17 0
2 17 0
-15 19 0
15 -19 0
-19 -30 0
19 30 0
20 -37 0
-37 48 0
-20 37 -48 0
-20 -48 0
20 48 0
1 -16 -50 0
1 -16 -37 0
1 -37 -50 0
-1 16 50 0
-1 16 37 0
-1 37 50 0
-1 16 0
-1 50 0
-1 37 0
16 37 50 0
-38 -44 0
-1 -38 0
-1 -44 0
1 38 44 0
